(declare-fun v7 () (_ BitVec 11))
(declare-fun a64 () (Array (_ BitVec 1) (_ BitVec 13)))
(declare-fun a65 () (Array (_ BitVec 10) (_ BitVec 9)))
(assert
(let (($e10 (_ bv21 6)))
(let (($e11 (_ bv3 6)))
(let (($e22 (_ bv0 8)))
(let (($e25 (_ bv511 9)))
(let (($e31 (_ bv0 3)))
(let (($e37 (_ bv1 14)))
(let (($e46 (_ bv1 13)))
(let (($e83        a64          ))
(let (($e113                    $e25      ))
(let (($e114 (concat $e113 $e11)))
(let (($e115        $e114    ))
(let (($e119                    v7 ))
(let (($e129               $e119 ))
(let (($e132                            $e129       ))
(let (($e192 (   extract      $e132)))
(let (($e264                      $e37 ))
(let (($e268                    $e264       ))
(let (($e279        a65             ))
(let (($e453 ((_ extract 11 2) $e115)))
(let (($e454 (select $e279 $e453)))
(let (($e502                      $e46 ))
(let (($e506                    $e502       ))
(let (($e693 (   extract      $e268)))
(let (($e694 (select $e83 $e693)))
(let (($e695      (= $e506 $e694)         ))
(let (($e696                   $e695  ))
(let (($e697             $e696          ))
(let (($e698 (concat $e22 $e697)))
(let (($e699              $e454 ))
(let (($e700               $e698                ))
(let (($e701 (bvand        $e700         $e699 )))
(let (($e702 (concat $e31 $e10)))
(let (($e703 (bvand $e702 $e701)))
(let (($e976             $e192          ))
(let (($e977            $e976 ))
             (ite        $e977  $e701 $e703)
                                                                                                                                                                                                                                                                                                                                                                                                                                                                                                                                                                                                                                                                                                                                                                                                                                                                                                                                                                                                                                                                                                                                                                                                                                                                                                                                                                                                                                                                                                                                                                                                                                                                                                                                                                                                                                                                                                                                                                                                                                                                                                                                                                                                                                                                                                                                                                                                                                                                                                                                                                                                                                                                                                                                                                                                                                              ))                                                                                                                                                                                                                                                                                )))))))))))                                                                                                                                                                                          )   )                                               ))                                                                                                                                                                             )          )   )                                                                       )                                                           )  )         )   )))                             )                      )        )     )     )  )          ))         )
